
Gurobi 8.1.0 (mac64) logging started Wed Dec 13 16:20:13 2023


ERROR 10009: No Gurobi license found (user yac027, host KL-8-MacBook-Pro.local, hostid 327df6df, cores 4)


Gurobi 8.1.0 (mac64) logging started Thu Dec 14 14:50:33 2023


ERROR 10009: No Gurobi license found (user yac027, host KL-8-MacBook-Pro.local, hostid 327df6df, cores 4)


Gurobi 8.1.0 (mac64) logging started Thu Dec 14 15:23:57 2023


ERROR 10009: No Gurobi license found (user yac027, host KL-8-MacBook-Pro.local, hostid 327df6df, cores 4)


Gurobi 8.1.0 (mac64) logging started Thu Dec 14 15:27:08 2023


ERROR 10009: No Gurobi license found (user yac027, host KL-8-MacBook-Pro.local, hostid 327df6df, cores 4)


Gurobi 8.1.0 (mac64) logging started Thu Dec 14 15:28:36 2023


ERROR 10009: No Gurobi license found (user yac027, host KL-8-MacBook-Pro.local, hostid 327df6df, cores 4)


Gurobi 8.1.0 (mac64) logging started Thu Dec 14 15:29:05 2023


ERROR 10009: No Gurobi license found (user yac027, host KL-8-MacBook-Pro.local, hostid 327df6df, cores 4)


Gurobi 8.1.0 (mac64) logging started Thu Dec 14 15:29:44 2023


ERROR 10009: No Gurobi license found (user yac027, host KL-8-MacBook-Pro.local, hostid 327df6df, cores 4)


Gurobi 8.1.0 (mac64) logging started Thu Dec 14 15:30:59 2023


ERROR 10009: No Gurobi license found (user yac027, host KL-8-MacBook-Pro.local, hostid 327df6df, cores 4)


Gurobi 8.1.0 (mac64) logging started Thu Dec 14 15:31:46 2023


ERROR 10009: No Gurobi license found (user yac027, host KL-8-MacBook-Pro.local, hostid 327df6df, cores 4)


Gurobi 8.1.0 (mac64) logging started Thu Dec 14 15:32:00 2023


ERROR 10009: No Gurobi license found (user yac027, host KL-8-MacBook-Pro.local, hostid 327df6df, cores 4)


Gurobi 8.1.0 (mac64) logging started Thu Dec 14 15:32:41 2023


ERROR 10009: No Gurobi license found (user yac027, host KL-8-MacBook-Pro.local, hostid 327df6df, cores 4)


Gurobi 8.1.0 (mac64) logging started Thu Dec 14 15:33:32 2023


ERROR 10009: No Gurobi license found (user yac027, host KL-8-MacBook-Pro.local, hostid 327df6df, cores 4)


Gurobi 8.1.0 (mac64) logging started Thu Dec 14 15:37:13 2023


ERROR 10009: No Gurobi license found (user yac027, host KL-8-MacBook-Pro.local, hostid 327df6df, cores 4)


Gurobi 8.1.0 (mac64) logging started Thu Dec 14 15:37:28 2023


ERROR 10009: No Gurobi license found (user yac027, host KL-8-MacBook-Pro.local, hostid 327df6df, cores 4)


Gurobi 8.1.0 (mac64) logging started Thu Dec 14 15:41:29 2023


ERROR 10009: No Gurobi license found (user yac027, host KL-8-MacBook-Pro.local, hostid 327df6df, cores 4)


Gurobi 8.1.0 (mac64) logging started Thu Dec 14 15:42:32 2023


ERROR 10009: No Gurobi license found (user yac027, host KL-8-MacBook-Pro.local, hostid 327df6df, cores 4)


Gurobi 8.1.0 (mac64) logging started Thu Dec 14 15:43:52 2023


ERROR 10009: No Gurobi license found (user yac027, host KL-8-MacBook-Pro.local, hostid 327df6df, cores 4)


Gurobi 8.1.0 (mac64) logging started Thu Dec 14 15:44:06 2023


ERROR 10009: No Gurobi license found (user yac027, host KL-8-MacBook-Pro.local, hostid 327df6df, cores 4)


Gurobi 8.1.0 (mac64) logging started Thu Dec 14 15:45:02 2023


ERROR 10009: No Gurobi license found (user yac027, host KL-8-MacBook-Pro.local, hostid 327df6df, cores 4)


Gurobi 8.1.0 (mac64) logging started Thu Dec 14 15:45:56 2023


ERROR 10009: No Gurobi license found (user yac027, host KL-8-MacBook-Pro.local, hostid 327df6df, cores 4)


Gurobi 8.1.0 (mac64) logging started Thu Dec 14 15:46:15 2023


ERROR 10009: No Gurobi license found (user yac027, host KL-8-MacBook-Pro.local, hostid 327df6df, cores 4)


Gurobi 8.1.0 (mac64) logging started Thu Dec 14 15:47:03 2023


ERROR 10009: No Gurobi license found (user yac027, host KL-8-MacBook-Pro.local, hostid 327df6df, cores 4)


Gurobi 8.1.0 (mac64) logging started Thu Dec 14 15:47:49 2023


ERROR 10009: No Gurobi license found (user yac027, host KL-8-MacBook-Pro.local, hostid 327df6df, cores 4)


Gurobi 8.1.0 (mac64) logging started Thu Dec 14 15:54:24 2023


ERROR 10009: No Gurobi license found (user yac027, host KL-8-MacBook-Pro.local, hostid 327df6df, cores 4)


Gurobi 8.1.0 (mac64) logging started Thu Dec 14 15:55:17 2023


ERROR 10009: No Gurobi license found (user yac027, host KL-8-MacBook-Pro.local, hostid 327df6df, cores 4)


Gurobi 8.1.0 (mac64) logging started Fri Dec 15 09:22:24 2023


ERROR 10009: No Gurobi license found (user yac027, host KL-8-MBP.san.rr.com, hostid 327df6df, cores 4)


Gurobi 8.1.0 (mac64) logging started Fri Dec 15 09:23:05 2023


ERROR 10009: No Gurobi license found (user yac027, host KL-8-MBP.san.rr.com, hostid 327df6df, cores 4)


Gurobi 8.1.0 (mac64) logging started Fri Dec 15 09:23:20 2023


ERROR 10009: No Gurobi license found (user yac027, host KL-8-MBP.san.rr.com, hostid 327df6df, cores 4)


Gurobi 8.1.0 (mac64) logging started Fri Dec 15 09:25:55 2023


ERROR 10009: No Gurobi license found (user yac027, host KL-8-MBP.san.rr.com, hostid 327df6df, cores 4)


Gurobi 8.1.0 (mac64) logging started Fri Dec 15 09:29:43 2023


ERROR 10009: No Gurobi license found (user yac027, host KL-8-MBP.san.rr.com, hostid 327df6df, cores 4)


Gurobi 8.1.0 (mac64) logging started Fri Dec 15 09:32:14 2023


ERROR 10009: No Gurobi license found (user yac027, host KL-8-MBP.san.rr.com, hostid 327df6df, cores 4)


Gurobi 8.1.0 (mac64) logging started Fri Dec 15 09:32:27 2023


ERROR 10009: No Gurobi license found (user yac027, host KL-8-MBP.san.rr.com, hostid 327df6df, cores 4)


Gurobi 8.1.0 (mac64) logging started Fri Dec 15 09:33:21 2023


ERROR 10009: No Gurobi license found (user yac027, host KL-8-MBP.san.rr.com, hostid 327df6df, cores 4)


Gurobi 8.1.0 (mac64) logging started Fri Dec 15 09:33:45 2023


ERROR 10009: No Gurobi license found (user yac027, host KL-8-MBP.san.rr.com, hostid 327df6df, cores 4)


Gurobi 8.1.0 (mac64) logging started Fri Dec 15 09:34:18 2023


ERROR 10009: No Gurobi license found (user yac027, host KL-8-MBP.san.rr.com, hostid 327df6df, cores 4)


Gurobi 8.1.0 (mac64) logging started Fri Dec 15 09:34:54 2023


ERROR 10009: No Gurobi license found (user yac027, host KL-8-MBP.san.rr.com, hostid 327df6df, cores 4)

